(set-info :smt-lib-version 2.6)
(set-logic QF_NIA)
(set-info :source |
Generated by: Cristina Borralleras, Daniel Larraz, Albert Oliveras, Enric Rodriguez-Carbonell, Albert Rubio
Generated on: 2017-04-27
Generator: VeryMax
Application: Termination proving
Target solver: barcelogic
|)
(set-info :license "https://creativecommons.org/licenses/by/4.0/")
(set-info :category "industrial")
(set-info :status unsat)
(declare-fun Nl3arg11 () Int)
(declare-fun Nl3arg21 () Int)
(declare-fun Nl3arg31 () Int)
(declare-fun Nl3arg41 () Int)
(declare-fun Nl3arg51 () Int)
(declare-fun lam0n0 () Int)
(declare-fun lam0n1 () Int)
(declare-fun lam0n2 () Int)
(declare-fun lam0n3 () Int)
(declare-fun lam0n5 () Int)
(declare-fun Nl3CT1 () Int)
(declare-fun lam0n4 () Int)
(declare-fun lam1n0 () Int)
(declare-fun lam1n1 () Int)
(declare-fun lam1n2 () Int)
(declare-fun lam1n3 () Int)
(declare-fun lam1n5 () Int)
(declare-fun lam1n4 () Int)
(declare-fun lam2n0 () Int)
(declare-fun lam2n1 () Int)
(declare-fun lam2n3 () Int)
(declare-fun lam2n2 () Int)
(declare-fun lam3n0 () Int)
(declare-fun lam3n1 () Int)
(declare-fun lam3n3 () Int)
(declare-fun lam3n2 () Int)
(declare-fun lam4n0 () Int)
(declare-fun lam4n1 () Int)
(declare-fun lam4n2 () Int)
(declare-fun lam4n3 () Int)
(declare-fun lam4n4 () Int)
(declare-fun lam4n6 () Int)
(declare-fun lam4n5 () Int)
(declare-fun lam5n0 () Int)
(declare-fun lam5n1 () Int)
(declare-fun lam5n2 () Int)
(declare-fun lam5n3 () Int)
(declare-fun lam5n4 () Int)
(declare-fun lam5n6 () Int)
(declare-fun lam5n5 () Int)
(declare-fun lam6n0 () Int)
(declare-fun lam6n1 () Int)
(declare-fun lam6n3 () Int)
(declare-fun lam6n2 () Int)
(declare-fun lam7n0 () Int)
(declare-fun lam7n1 () Int)
(declare-fun lam7n3 () Int)
(declare-fun lam7n2 () Int)
(declare-fun lam8n0 () Int)
(declare-fun lam8n1 () Int)
(declare-fun lam8n2 () Int)
(declare-fun lam8n3 () Int)
(declare-fun lam9n0 () Int)
(declare-fun lam9n1 () Int)
(declare-fun arg1 () Int)
(declare-fun arg4 () Int)
(declare-fun undef12 () Int)
(declare-fun arg2 () Int)
(declare-fun arg3 () Int)
(declare-fun undef13 () Int)
(declare-fun undef14 () Int)
(declare-fun undef15 () Int)
(declare-fun undef18 () Int)
(declare-fun undef19 () Int)
(declare-fun undef20 () Int)
(declare-fun lam13n0 () Int)
(declare-fun lam13n1 () Int)
(declare-fun lam13n2 () Int)
(declare-fun lam13n3 () Int)
(declare-fun lam13n5 () Int)
(declare-fun RFN1_CT () Int)
(declare-fun RFN1_arg1 () Int)
(declare-fun RFN1_arg2 () Int)
(declare-fun RFN1_arg3 () Int)
(declare-fun RFN1_arg4 () Int)
(declare-fun RFN1_arg5 () Int)
(declare-fun lam13n4 () Int)
(declare-fun lam17n0 () Int)
(declare-fun lam17n1 () Int)
(declare-fun lam17n3 () Int)
(declare-fun lam17n2 () Int)
(declare-fun lam21n0 () Int)
(declare-fun lam21n1 () Int)
(declare-fun lam21n2 () Int)
(declare-fun lam21n3 () Int)
(declare-fun lam21n4 () Int)
(declare-fun lam21n6 () Int)
(declare-fun lam21n5 () Int)
(declare-fun lam25n0 () Int)
(declare-fun lam25n1 () Int)
(declare-fun lam25n3 () Int)
(declare-fun lam25n2 () Int)
(declare-fun lam11n0 () Int)
(declare-fun lam11n1 () Int)
(declare-fun lam11n2 () Int)
(declare-fun lam11n3 () Int)
(declare-fun lam11n5 () Int)
(declare-fun lam11n4 () Int)
(declare-fun lam12n0 () Int)
(declare-fun lam12n1 () Int)
(declare-fun lam12n2 () Int)
(declare-fun lam12n3 () Int)
(declare-fun lam12n5 () Int)
(declare-fun lam12n4 () Int)
(declare-fun lam15n0 () Int)
(declare-fun lam15n1 () Int)
(declare-fun lam15n3 () Int)
(declare-fun lam15n2 () Int)
(declare-fun lam16n0 () Int)
(declare-fun lam16n1 () Int)
(declare-fun lam16n3 () Int)
(declare-fun lam16n2 () Int)
(declare-fun lam19n0 () Int)
(declare-fun lam19n1 () Int)
(declare-fun lam19n2 () Int)
(declare-fun lam19n3 () Int)
(declare-fun lam19n4 () Int)
(declare-fun lam19n6 () Int)
(declare-fun lam19n5 () Int)
(declare-fun lam20n0 () Int)
(declare-fun lam20n1 () Int)
(declare-fun lam20n2 () Int)
(declare-fun lam20n3 () Int)
(declare-fun lam20n4 () Int)
(declare-fun lam20n6 () Int)
(declare-fun lam20n5 () Int)
(declare-fun lam23n0 () Int)
(declare-fun lam23n1 () Int)
(declare-fun lam23n3 () Int)
(declare-fun lam23n2 () Int)
(declare-fun lam24n0 () Int)
(declare-fun lam24n1 () Int)
(declare-fun lam24n3 () Int)
(declare-fun lam24n2 () Int)
(declare-fun lam10n0 () Int)
(declare-fun lam10n1 () Int)
(declare-fun lam10n2 () Int)
(declare-fun lam10n3 () Int)
(declare-fun lam10n5 () Int)
(declare-fun lam10n4 () Int)
(declare-fun lam14n0 () Int)
(declare-fun lam14n1 () Int)
(declare-fun lam14n3 () Int)
(declare-fun lam14n2 () Int)
(declare-fun lam18n0 () Int)
(declare-fun lam18n1 () Int)
(declare-fun lam18n2 () Int)
(declare-fun lam18n3 () Int)
(declare-fun lam18n4 () Int)
(declare-fun lam18n6 () Int)
(declare-fun lam18n5 () Int)
(declare-fun lam22n0 () Int)
(declare-fun lam22n1 () Int)
(declare-fun lam22n3 () Int)
(declare-fun lam22n2 () Int)
(assert ( and ( <= ( - 2 ) Nl3arg11 ) ( <= Nl3arg11 2 ) ( <= ( - 2 ) Nl3arg21 ) ( <= Nl3arg21 2 ) ( <= ( - 2 ) Nl3arg31 ) ( <= Nl3arg31 2 ) ( <= ( - 2 ) Nl3arg41 ) ( <= Nl3arg41 2 ) ( <= ( - 2 ) Nl3arg51 ) ( <= Nl3arg51 2 ) ))
(assert ( or ( and ( >= lam0n0 0 ) ( >= lam0n1 0 ) ( >= lam0n2 0 ) ( >= lam0n3 0 ) ( >= lam0n5 0 ) ( > ( + ( * 1 lam0n0 ) ( * 1 lam0n1 ) ( * 1 lam0n2 ) ( * Nl3CT1 lam0n5 ) ( - 1 ) ) 0 ) ( = ( + ( * 1 lam0n4 ) ( * Nl3arg11 lam0n5 ) ) 0 ) ( = ( + ( * ( - 1 ) lam0n0 ) ( * ( - 1 ) lam0n3 ) ( * Nl3arg21 lam0n5 ) ) 0 ) ( = ( * Nl3arg31 lam0n5 ) 0 ) ( = ( * Nl3arg41 lam0n5 ) 0 ) ( = ( * Nl3arg51 lam0n5 ) 0 ) ( = ( * ( - 1 ) lam0n1 ) 0 ) ( = ( + ( * 1 lam0n0 ) ( * 1 lam0n1 ) ( * ( - 1 ) lam0n2 ) ) 0 ) ) ( and ( >= lam1n0 0 ) ( >= lam1n1 0 ) ( >= lam1n2 0 ) ( >= lam1n3 0 ) ( >= lam1n5 0 ) ( > ( + ( * 1 lam1n0 ) ( * 1 lam1n1 ) ( * 1 lam1n2 ) ( * Nl3CT1 lam1n5 ) ( - 1 ( + ( + ( + ( + ( + Nl3CT1 ( * Nl3arg11 1 ) ) ( * Nl3arg21 0 ) ) ( * Nl3arg31 0 ) ) ( * Nl3arg41 0 ) ) ( * Nl3arg51 0 ) ) ) ) 0 ) ( = ( + ( * 1 lam1n4 ) ( * Nl3arg11 lam1n5 ) ) 0 ) ( = ( + ( * ( - 1 ) lam1n0 ) ( * ( - 1 ) lam1n3 ) ( * Nl3arg21 lam1n5 ) ) 0 ) ( = ( * Nl3arg31 lam1n5 ) 0 ) ( = ( * Nl3arg41 lam1n5 ) 0 ) ( = ( * Nl3arg51 lam1n5 ) 0 ) ( = ( + ( * ( - 1 ) lam1n1 ) ( - ( + 0 ( * Nl3arg21 1 ) ) ) ) 0 ) ( = ( - ( + 0 ( * Nl3arg31 1 ) ) ) 0 ) ( = ( - ( + 0 ( * Nl3arg41 1 ) ) ) 0 ) ( = ( - ( + 0 ( * Nl3arg51 1 ) ) ) 0 ) ( = ( + ( * 1 lam1n0 ) ( * 1 lam1n1 ) ( * ( - 1 ) lam1n2 ) ) 0 ) ) ))
(assert ( or ( and ( >= lam2n0 0 ) ( >= lam2n1 0 ) ( >= lam2n3 0 ) ( > ( + ( * 1 lam2n0 ) ( * Nl3CT1 lam2n3 ) ( - 1 ) ) 0 ) ( = ( + ( * 1 lam2n2 ) ( * Nl3arg11 lam2n3 ) ) 0 ) ( = ( + ( * ( - 1 ) lam2n0 ) ( * ( - 1 ) lam2n1 ) ( * Nl3arg21 lam2n3 ) ) 0 ) ( = ( * Nl3arg31 lam2n3 ) 0 ) ( = ( * Nl3arg41 lam2n3 ) 0 ) ( = ( * Nl3arg51 lam2n3 ) 0 ) ( = ( * 1 lam2n0 ) 0 ) ) ( and ( >= lam3n0 0 ) ( >= lam3n1 0 ) ( >= lam3n3 0 ) ( > ( + ( * 1 lam3n0 ) ( * Nl3CT1 lam3n3 ) ( - 1 ( + ( + ( + ( + ( + Nl3CT1 ( * Nl3arg11 1 ) ) ( * Nl3arg21 1 ) ) ( * Nl3arg31 0 ) ) ( * Nl3arg41 0 ) ) ( * Nl3arg51 0 ) ) ) ) 0 ) ( = ( + ( * 1 lam3n2 ) ( * Nl3arg11 lam3n3 ) ) 0 ) ( = ( + ( * ( - 1 ) lam3n0 ) ( * ( - 1 ) lam3n1 ) ( * Nl3arg21 lam3n3 ) ) 0 ) ( = ( * Nl3arg31 lam3n3 ) 0 ) ( = ( * Nl3arg41 lam3n3 ) 0 ) ( = ( * Nl3arg51 lam3n3 ) 0 ) ( = ( - ( + 0 ( * Nl3arg31 1 ) ) ) 0 ) ( = ( - ( + 0 ( * Nl3arg41 1 ) ) ) 0 ) ( = ( - ( + 0 ( * Nl3arg51 1 ) ) ) 0 ) ( = ( * 1 lam3n0 ) 0 ) ) ))
(assert ( or ( and ( >= lam4n0 0 ) ( >= lam4n1 0 ) ( >= lam4n2 0 ) ( >= lam4n3 0 ) ( >= lam4n4 0 ) ( >= lam4n6 0 ) ( > ( + ( * 1 lam4n0 ) ( * 1 lam4n1 ) ( * 1 lam4n2 ) ( * 1 lam4n3 ) ( * ( - 1 ) lam4n5 ) ( * Nl3CT1 lam4n6 ) ( - 1 ) ) 0 ) ( = ( + ( * 1 lam4n5 ) ( * Nl3arg11 lam4n6 ) ) 0 ) ( = ( + ( * ( - 1 ) lam4n0 ) ( * ( - 1 ) lam4n4 ) ( * Nl3arg21 lam4n6 ) ) 0 ) ( = ( * Nl3arg31 lam4n6 ) 0 ) ( = ( * Nl3arg41 lam4n6 ) 0 ) ( = ( * Nl3arg51 lam4n6 ) 0 ) ( = ( + ( * 1 lam4n0 ) ( * 1 lam4n1 ) ( * 1 lam4n2 ) ( * ( - 1 ) lam4n3 ) ) 0 ) ( = ( * ( - 1 ) lam4n1 ) 0 ) ( = ( * ( - 1 ) lam4n2 ) 0 ) ) ( and ( >= lam5n0 0 ) ( >= lam5n1 0 ) ( >= lam5n2 0 ) ( >= lam5n3 0 ) ( >= lam5n4 0 ) ( >= lam5n6 0 ) ( > ( + ( * 1 lam5n0 ) ( * 1 lam5n1 ) ( * 1 lam5n2 ) ( * 1 lam5n3 ) ( * ( - 1 ) lam5n5 ) ( * Nl3CT1 lam5n6 ) ( - 1 ( + ( + ( + ( + ( + Nl3CT1 ( * Nl3arg11 0 ) ) ( * Nl3arg21 0 ) ) ( * Nl3arg31 0 ) ) ( * Nl3arg41 0 ) ) ( * Nl3arg51 0 ) ) ) ) 0 ) ( = ( + ( * 1 lam5n5 ) ( * Nl3arg11 lam5n6 ) ) 0 ) ( = ( + ( * ( - 1 ) lam5n0 ) ( * ( - 1 ) lam5n4 ) ( * Nl3arg21 lam5n6 ) ) 0 ) ( = ( * Nl3arg31 lam5n6 ) 0 ) ( = ( * Nl3arg41 lam5n6 ) 0 ) ( = ( * Nl3arg51 lam5n6 ) 0 ) ( = ( - ( + 0 ( * Nl3arg31 1 ) ) ) 0 ) ( = ( - ( + 0 ( * Nl3arg41 1 ) ) ) 0 ) ( = ( - ( + 0 ( * Nl3arg51 1 ) ) ) 0 ) ( = ( + ( * 1 lam5n0 ) ( * 1 lam5n1 ) ( * 1 lam5n2 ) ( * ( - 1 ) lam5n3 ) ) 0 ) ( = ( * ( - 1 ) lam5n1 ) 0 ) ( = ( * ( - 1 ) lam5n2 ) 0 ) ) ))
(assert ( or ( and ( >= lam6n0 0 ) ( >= lam6n1 0 ) ( >= lam6n3 0 ) ( > ( + ( * 1 lam6n0 ) ( * ( - 1 ) lam6n2 ) ( * Nl3CT1 lam6n3 ) ( - 1 ) ) 0 ) ( = ( + ( * 1 lam6n2 ) ( * Nl3arg11 lam6n3 ) ) 0 ) ( = ( + ( * ( - 1 ) lam6n0 ) ( * ( - 1 ) lam6n1 ) ( * Nl3arg21 lam6n3 ) ) 0 ) ( = ( * Nl3arg31 lam6n3 ) 0 ) ( = ( * Nl3arg41 lam6n3 ) 0 ) ( = ( * Nl3arg51 lam6n3 ) 0 ) ( = ( * 1 lam6n0 ) 0 ) ) ( and ( >= lam7n0 0 ) ( >= lam7n1 0 ) ( >= lam7n3 0 ) ( > ( + ( * 1 lam7n0 ) ( * ( - 1 ) lam7n2 ) ( * Nl3CT1 lam7n3 ) ( - 1 ( + ( + ( + ( + ( + Nl3CT1 ( * Nl3arg11 0 ) ) ( * Nl3arg21 2 ) ) ( * Nl3arg31 0 ) ) ( * Nl3arg41 0 ) ) ( * Nl3arg51 0 ) ) ) ) 0 ) ( = ( + ( * 1 lam7n2 ) ( * Nl3arg11 lam7n3 ) ) 0 ) ( = ( + ( * ( - 1 ) lam7n0 ) ( * ( - 1 ) lam7n1 ) ( * Nl3arg21 lam7n3 ) ) 0 ) ( = ( * Nl3arg31 lam7n3 ) 0 ) ( = ( * Nl3arg41 lam7n3 ) 0 ) ( = ( * Nl3arg51 lam7n3 ) 0 ) ( = ( - ( + 0 ( * Nl3arg31 1 ) ) ) 0 ) ( = ( - ( + 0 ( * Nl3arg41 1 ) ) ) 0 ) ( = ( - ( + 0 ( * Nl3arg51 1 ) ) ) 0 ) ( = ( * 1 lam7n0 ) 0 ) ) ))
(assert ( or ( and ( <= ( + 1 ( * ( - 1 ) arg1 ) ) 0 ) ( <= ( + 1 arg4 ( * ( - 1 ) undef12 ) ) 0 ) ( <= ( + 1 ( * ( - 1 ) arg4 ) ) 0 ) ( <= ( + ( * ( - 1 ) arg2 ) arg3 ) 0 ) ( <= ( + ( + ( + ( + ( + ( + Nl3CT1 ( * Nl3arg11 1 ) ) ( * Nl3arg21 0 ) ) ( * Nl3arg31 0 ) ) ( * Nl3arg41 0 ) ) ( * Nl3arg51 0 ) ) ( * ( + 0 ( * Nl3arg21 1 ) ) undef12 ) ( * ( + 0 ( * Nl3arg31 1 ) ) undef13 ) ( * ( + 0 ( * Nl3arg41 1 ) ) undef14 ) ( * ( + 0 ( * Nl3arg51 1 ) ) undef15 ) ) 0 ) ) ( and ( <= ( + 1 ( * ( - 1 ) arg1 ) ) 0 ) ( <= ( + ( * ( - 1 ) arg2 ) arg3 ) 0 ) ( <= ( + ( + ( + ( + ( + ( + Nl3CT1 ( * Nl3arg11 1 ) ) ( * Nl3arg21 1 ) ) ( * Nl3arg31 0 ) ) ( * Nl3arg41 0 ) ) ( * Nl3arg51 0 ) ) ( * ( + 0 ( * Nl3arg31 1 ) ) undef18 ) ( * ( + 0 ( * Nl3arg41 1 ) ) undef19 ) ( * ( + 0 ( * Nl3arg51 1 ) ) undef20 ) ) 0 ) ) ))
(assert ( or ( and ( and ( and ( >= lam13n0 0 ) ( >= lam13n1 0 ) ( >= lam13n2 0 ) ( >= lam13n3 0 ) ( >= lam13n5 0 ) ( > ( + ( * 1 lam13n0 ) ( * 1 lam13n1 ) ( * 1 lam13n2 ) ( * Nl3CT1 lam13n5 ) ( - 1 ( - ( + ( + ( + ( + ( + RFN1_CT ( * RFN1_arg1 1 ) ) ( * RFN1_arg2 0 ) ) ( * RFN1_arg3 0 ) ) ( * RFN1_arg4 0 ) ) ( * RFN1_arg5 0 ) ) RFN1_CT ) ) ) 0 ) ( = ( + ( * 1 lam13n4 ) ( * Nl3arg11 lam13n5 ) ( - ( - RFN1_arg1 ) ) ) 0 ) ( = ( + ( * ( - 1 ) lam13n0 ) ( * ( - 1 ) lam13n3 ) ( * Nl3arg21 lam13n5 ) ( - ( - RFN1_arg2 ) ) ) 0 ) ( = ( + ( * Nl3arg31 lam13n5 ) ( - ( - RFN1_arg3 ) ) ) 0 ) ( = ( + ( * Nl3arg41 lam13n5 ) ( - ( - RFN1_arg4 ) ) ) 0 ) ( = ( + ( * Nl3arg51 lam13n5 ) ( - ( - RFN1_arg5 ) ) ) 0 ) ( = ( + ( * ( - 1 ) lam13n1 ) ( - ( + 0 ( * RFN1_arg2 1 ) ) ) ) 0 ) ( = ( - ( + 0 ( * RFN1_arg3 1 ) ) ) 0 ) ( = ( - ( + 0 ( * RFN1_arg4 1 ) ) ) 0 ) ( = ( - ( + 0 ( * RFN1_arg5 1 ) ) ) 0 ) ( = ( + ( * 1 lam13n0 ) ( * 1 lam13n1 ) ( * ( - 1 ) lam13n2 ) ) 0 ) ) ( and ( >= lam17n0 0 ) ( >= lam17n1 0 ) ( >= lam17n3 0 ) ( > ( + ( * 1 lam17n0 ) ( * Nl3CT1 lam17n3 ) ( - 1 ( - ( + ( + ( + ( + ( + RFN1_CT ( * RFN1_arg1 1 ) ) ( * RFN1_arg2 1 ) ) ( * RFN1_arg3 0 ) ) ( * RFN1_arg4 0 ) ) ( * RFN1_arg5 0 ) ) RFN1_CT ) ) ) 0 ) ( = ( + ( * 1 lam17n2 ) ( * Nl3arg11 lam17n3 ) ( - ( - RFN1_arg1 ) ) ) 0 ) ( = ( + ( * ( - 1 ) lam17n0 ) ( * ( - 1 ) lam17n1 ) ( * Nl3arg21 lam17n3 ) ( - ( - RFN1_arg2 ) ) ) 0 ) ( = ( + ( * Nl3arg31 lam17n3 ) ( - ( - RFN1_arg3 ) ) ) 0 ) ( = ( + ( * Nl3arg41 lam17n3 ) ( - ( - RFN1_arg4 ) ) ) 0 ) ( = ( + ( * Nl3arg51 lam17n3 ) ( - ( - RFN1_arg5 ) ) ) 0 ) ( = ( - ( + 0 ( * RFN1_arg3 1 ) ) ) 0 ) ( = ( - ( + 0 ( * RFN1_arg4 1 ) ) ) 0 ) ( = ( - ( + 0 ( * RFN1_arg5 1 ) ) ) 0 ) ( = ( * 1 lam17n0 ) 0 ) ) ( and ( >= lam21n0 0 ) ( >= lam21n1 0 ) ( >= lam21n2 0 ) ( >= lam21n3 0 ) ( >= lam21n4 0 ) ( >= lam21n6 0 ) ( > ( + ( * 1 lam21n0 ) ( * 1 lam21n1 ) ( * 1 lam21n2 ) ( * 1 lam21n3 ) ( * ( - 1 ) lam21n5 ) ( * Nl3CT1 lam21n6 ) ( - 1 ( - ( + ( + ( + ( + ( + RFN1_CT ( * RFN1_arg1 0 ) ) ( * RFN1_arg2 0 ) ) ( * RFN1_arg3 0 ) ) ( * RFN1_arg4 0 ) ) ( * RFN1_arg5 0 ) ) RFN1_CT ) ) ) 0 ) ( = ( + ( * 1 lam21n5 ) ( * Nl3arg11 lam21n6 ) ( - ( - RFN1_arg1 ) ) ) 0 ) ( = ( + ( * ( - 1 ) lam21n0 ) ( * ( - 1 ) lam21n4 ) ( * Nl3arg21 lam21n6 ) ( - ( - RFN1_arg2 ) ) ) 0 ) ( = ( + ( * Nl3arg31 lam21n6 ) ( - ( - RFN1_arg3 ) ) ) 0 ) ( = ( + ( * Nl3arg41 lam21n6 ) ( - ( - RFN1_arg4 ) ) ) 0 ) ( = ( + ( * Nl3arg51 lam21n6 ) ( - ( - RFN1_arg5 ) ) ) 0 ) ( = ( - ( + 0 ( * RFN1_arg3 1 ) ) ) 0 ) ( = ( - ( + 0 ( * RFN1_arg4 1 ) ) ) 0 ) ( = ( - ( + 0 ( * RFN1_arg5 1 ) ) ) 0 ) ( = ( + ( * 1 lam21n0 ) ( * 1 lam21n1 ) ( * 1 lam21n2 ) ( * ( - 1 ) lam21n3 ) ) 0 ) ( = ( * ( - 1 ) lam21n1 ) 0 ) ( = ( * ( - 1 ) lam21n2 ) 0 ) ) ( and ( >= lam25n0 0 ) ( >= lam25n1 0 ) ( >= lam25n3 0 ) ( > ( + ( * 1 lam25n0 ) ( * ( - 1 ) lam25n2 ) ( * Nl3CT1 lam25n3 ) ( - 1 ( - ( + ( + ( + ( + ( + RFN1_CT ( * RFN1_arg1 0 ) ) ( * RFN1_arg2 2 ) ) ( * RFN1_arg3 0 ) ) ( * RFN1_arg4 0 ) ) ( * RFN1_arg5 0 ) ) RFN1_CT ) ) ) 0 ) ( = ( + ( * 1 lam25n2 ) ( * Nl3arg11 lam25n3 ) ( - ( - RFN1_arg1 ) ) ) 0 ) ( = ( + ( * ( - 1 ) lam25n0 ) ( * ( - 1 ) lam25n1 ) ( * Nl3arg21 lam25n3 ) ( - ( - RFN1_arg2 ) ) ) 0 ) ( = ( + ( * Nl3arg31 lam25n3 ) ( - ( - RFN1_arg3 ) ) ) 0 ) ( = ( + ( * Nl3arg41 lam25n3 ) ( - ( - RFN1_arg4 ) ) ) 0 ) ( = ( + ( * Nl3arg51 lam25n3 ) ( - ( - RFN1_arg5 ) ) ) 0 ) ( = ( - ( + 0 ( * RFN1_arg3 1 ) ) ) 0 ) ( = ( - ( + 0 ( * RFN1_arg4 1 ) ) ) 0 ) ( = ( - ( + 0 ( * RFN1_arg5 1 ) ) ) 0 ) ( = ( * 1 lam25n0 ) 0 ) ) ) ( or ( and ( and ( >= lam11n0 0 ) ( >= lam11n1 0 ) ( >= lam11n2 0 ) ( >= lam11n3 0 ) ( >= lam11n5 0 ) ( > ( + ( * 1 lam11n0 ) ( * 1 lam11n1 ) ( * 1 lam11n2 ) ( * Nl3CT1 lam11n5 ) ( - 1 ( - RFN1_CT ) ) ) 0 ) ( = ( + ( * 1 lam11n4 ) ( * Nl3arg11 lam11n5 ) ( - ( - RFN1_arg1 ) ) ) 0 ) ( = ( + ( * ( - 1 ) lam11n0 ) ( * ( - 1 ) lam11n3 ) ( * Nl3arg21 lam11n5 ) ( - ( - RFN1_arg2 ) ) ) 0 ) ( = ( + ( * Nl3arg31 lam11n5 ) ( - ( - RFN1_arg3 ) ) ) 0 ) ( = ( + ( * Nl3arg41 lam11n5 ) ( - ( - RFN1_arg4 ) ) ) 0 ) ( = ( + ( * Nl3arg51 lam11n5 ) ( - ( - RFN1_arg5 ) ) ) 0 ) ( = ( * ( - 1 ) lam11n1 ) 0 ) ( = ( + ( * 1 lam11n0 ) ( * 1 lam11n1 ) ( * ( - 1 ) lam11n2 ) ) 0 ) ) ( and ( >= lam12n0 0 ) ( >= lam12n1 0 ) ( >= lam12n2 0 ) ( >= lam12n3 0 ) ( >= lam12n5 0 ) ( > ( + ( * 1 lam12n0 ) ( * 1 lam12n1 ) ( * 1 lam12n2 ) ( * Nl3CT1 lam12n5 ) ( - 1 ( + ( - ( + ( + ( + ( + ( + RFN1_CT ( * RFN1_arg1 1 ) ) ( * RFN1_arg2 0 ) ) ( * RFN1_arg3 0 ) ) ( * RFN1_arg4 0 ) ) ( * RFN1_arg5 0 ) ) RFN1_CT ) 1 ) ) ) 0 ) ( = ( + ( * 1 lam12n4 ) ( * Nl3arg11 lam12n5 ) ( - ( - RFN1_arg1 ) ) ) 0 ) ( = ( + ( * ( - 1 ) lam12n0 ) ( * ( - 1 ) lam12n3 ) ( * Nl3arg21 lam12n5 ) ( - ( - RFN1_arg2 ) ) ) 0 ) ( = ( + ( * Nl3arg31 lam12n5 ) ( - ( - RFN1_arg3 ) ) ) 0 ) ( = ( + ( * Nl3arg41 lam12n5 ) ( - ( - RFN1_arg4 ) ) ) 0 ) ( = ( + ( * Nl3arg51 lam12n5 ) ( - ( - RFN1_arg5 ) ) ) 0 ) ( = ( + ( * ( - 1 ) lam12n1 ) ( - ( + 0 ( * RFN1_arg2 1 ) ) ) ) 0 ) ( = ( - ( + 0 ( * RFN1_arg3 1 ) ) ) 0 ) ( = ( - ( + 0 ( * RFN1_arg4 1 ) ) ) 0 ) ( = ( - ( + 0 ( * RFN1_arg5 1 ) ) ) 0 ) ( = ( + ( * 1 lam12n0 ) ( * 1 lam12n1 ) ( * ( - 1 ) lam12n2 ) ) 0 ) ) ) ( and ( and ( >= lam15n0 0 ) ( >= lam15n1 0 ) ( >= lam15n3 0 ) ( > ( + ( * 1 lam15n0 ) ( * Nl3CT1 lam15n3 ) ( - 1 ( - RFN1_CT ) ) ) 0 ) ( = ( + ( * 1 lam15n2 ) ( * Nl3arg11 lam15n3 ) ( - ( - RFN1_arg1 ) ) ) 0 ) ( = ( + ( * ( - 1 ) lam15n0 ) ( * ( - 1 ) lam15n1 ) ( * Nl3arg21 lam15n3 ) ( - ( - RFN1_arg2 ) ) ) 0 ) ( = ( + ( * Nl3arg31 lam15n3 ) ( - ( - RFN1_arg3 ) ) ) 0 ) ( = ( + ( * Nl3arg41 lam15n3 ) ( - ( - RFN1_arg4 ) ) ) 0 ) ( = ( + ( * Nl3arg51 lam15n3 ) ( - ( - RFN1_arg5 ) ) ) 0 ) ( = ( * 1 lam15n0 ) 0 ) ) ( and ( >= lam16n0 0 ) ( >= lam16n1 0 ) ( >= lam16n3 0 ) ( > ( + ( * 1 lam16n0 ) ( * Nl3CT1 lam16n3 ) ( - 1 ( + ( - ( + ( + ( + ( + ( + RFN1_CT ( * RFN1_arg1 1 ) ) ( * RFN1_arg2 1 ) ) ( * RFN1_arg3 0 ) ) ( * RFN1_arg4 0 ) ) ( * RFN1_arg5 0 ) ) RFN1_CT ) 1 ) ) ) 0 ) ( = ( + ( * 1 lam16n2 ) ( * Nl3arg11 lam16n3 ) ( - ( - RFN1_arg1 ) ) ) 0 ) ( = ( + ( * ( - 1 ) lam16n0 ) ( * ( - 1 ) lam16n1 ) ( * Nl3arg21 lam16n3 ) ( - ( - RFN1_arg2 ) ) ) 0 ) ( = ( + ( * Nl3arg31 lam16n3 ) ( - ( - RFN1_arg3 ) ) ) 0 ) ( = ( + ( * Nl3arg41 lam16n3 ) ( - ( - RFN1_arg4 ) ) ) 0 ) ( = ( + ( * Nl3arg51 lam16n3 ) ( - ( - RFN1_arg5 ) ) ) 0 ) ( = ( - ( + 0 ( * RFN1_arg3 1 ) ) ) 0 ) ( = ( - ( + 0 ( * RFN1_arg4 1 ) ) ) 0 ) ( = ( - ( + 0 ( * RFN1_arg5 1 ) ) ) 0 ) ( = ( * 1 lam16n0 ) 0 ) ) ) ( and ( and ( >= lam19n0 0 ) ( >= lam19n1 0 ) ( >= lam19n2 0 ) ( >= lam19n3 0 ) ( >= lam19n4 0 ) ( >= lam19n6 0 ) ( > ( + ( * 1 lam19n0 ) ( * 1 lam19n1 ) ( * 1 lam19n2 ) ( * 1 lam19n3 ) ( * ( - 1 ) lam19n5 ) ( * Nl3CT1 lam19n6 ) ( - 1 ( - RFN1_CT ) ) ) 0 ) ( = ( + ( * 1 lam19n5 ) ( * Nl3arg11 lam19n6 ) ( - ( - RFN1_arg1 ) ) ) 0 ) ( = ( + ( * ( - 1 ) lam19n0 ) ( * ( - 1 ) lam19n4 ) ( * Nl3arg21 lam19n6 ) ( - ( - RFN1_arg2 ) ) ) 0 ) ( = ( + ( * Nl3arg31 lam19n6 ) ( - ( - RFN1_arg3 ) ) ) 0 ) ( = ( + ( * Nl3arg41 lam19n6 ) ( - ( - RFN1_arg4 ) ) ) 0 ) ( = ( + ( * Nl3arg51 lam19n6 ) ( - ( - RFN1_arg5 ) ) ) 0 ) ( = ( + ( * 1 lam19n0 ) ( * 1 lam19n1 ) ( * 1 lam19n2 ) ( * ( - 1 ) lam19n3 ) ) 0 ) ( = ( * ( - 1 ) lam19n1 ) 0 ) ( = ( * ( - 1 ) lam19n2 ) 0 ) ) ( and ( >= lam20n0 0 ) ( >= lam20n1 0 ) ( >= lam20n2 0 ) ( >= lam20n3 0 ) ( >= lam20n4 0 ) ( >= lam20n6 0 ) ( > ( + ( * 1 lam20n0 ) ( * 1 lam20n1 ) ( * 1 lam20n2 ) ( * 1 lam20n3 ) ( * ( - 1 ) lam20n5 ) ( * Nl3CT1 lam20n6 ) ( - 1 ( + ( - ( + ( + ( + ( + ( + RFN1_CT ( * RFN1_arg1 0 ) ) ( * RFN1_arg2 0 ) ) ( * RFN1_arg3 0 ) ) ( * RFN1_arg4 0 ) ) ( * RFN1_arg5 0 ) ) RFN1_CT ) 1 ) ) ) 0 ) ( = ( + ( * 1 lam20n5 ) ( * Nl3arg11 lam20n6 ) ( - ( - RFN1_arg1 ) ) ) 0 ) ( = ( + ( * ( - 1 ) lam20n0 ) ( * ( - 1 ) lam20n4 ) ( * Nl3arg21 lam20n6 ) ( - ( - RFN1_arg2 ) ) ) 0 ) ( = ( + ( * Nl3arg31 lam20n6 ) ( - ( - RFN1_arg3 ) ) ) 0 ) ( = ( + ( * Nl3arg41 lam20n6 ) ( - ( - RFN1_arg4 ) ) ) 0 ) ( = ( + ( * Nl3arg51 lam20n6 ) ( - ( - RFN1_arg5 ) ) ) 0 ) ( = ( - ( + 0 ( * RFN1_arg3 1 ) ) ) 0 ) ( = ( - ( + 0 ( * RFN1_arg4 1 ) ) ) 0 ) ( = ( - ( + 0 ( * RFN1_arg5 1 ) ) ) 0 ) ( = ( + ( * 1 lam20n0 ) ( * 1 lam20n1 ) ( * 1 lam20n2 ) ( * ( - 1 ) lam20n3 ) ) 0 ) ( = ( * ( - 1 ) lam20n1 ) 0 ) ( = ( * ( - 1 ) lam20n2 ) 0 ) ) ) ( and ( and ( >= lam23n0 0 ) ( >= lam23n1 0 ) ( >= lam23n3 0 ) ( > ( + ( * 1 lam23n0 ) ( * ( - 1 ) lam23n2 ) ( * Nl3CT1 lam23n3 ) ( - 1 ( - RFN1_CT ) ) ) 0 ) ( = ( + ( * 1 lam23n2 ) ( * Nl3arg11 lam23n3 ) ( - ( - RFN1_arg1 ) ) ) 0 ) ( = ( + ( * ( - 1 ) lam23n0 ) ( * ( - 1 ) lam23n1 ) ( * Nl3arg21 lam23n3 ) ( - ( - RFN1_arg2 ) ) ) 0 ) ( = ( + ( * Nl3arg31 lam23n3 ) ( - ( - RFN1_arg3 ) ) ) 0 ) ( = ( + ( * Nl3arg41 lam23n3 ) ( - ( - RFN1_arg4 ) ) ) 0 ) ( = ( + ( * Nl3arg51 lam23n3 ) ( - ( - RFN1_arg5 ) ) ) 0 ) ( = ( * 1 lam23n0 ) 0 ) ) ( and ( >= lam24n0 0 ) ( >= lam24n1 0 ) ( >= lam24n3 0 ) ( > ( + ( * 1 lam24n0 ) ( * ( - 1 ) lam24n2 ) ( * Nl3CT1 lam24n3 ) ( - 1 ( + ( - ( + ( + ( + ( + ( + RFN1_CT ( * RFN1_arg1 0 ) ) ( * RFN1_arg2 2 ) ) ( * RFN1_arg3 0 ) ) ( * RFN1_arg4 0 ) ) ( * RFN1_arg5 0 ) ) RFN1_CT ) 1 ) ) ) 0 ) ( = ( + ( * 1 lam24n2 ) ( * Nl3arg11 lam24n3 ) ( - ( - RFN1_arg1 ) ) ) 0 ) ( = ( + ( * ( - 1 ) lam24n0 ) ( * ( - 1 ) lam24n1 ) ( * Nl3arg21 lam24n3 ) ( - ( - RFN1_arg2 ) ) ) 0 ) ( = ( + ( * Nl3arg31 lam24n3 ) ( - ( - RFN1_arg3 ) ) ) 0 ) ( = ( + ( * Nl3arg41 lam24n3 ) ( - ( - RFN1_arg4 ) ) ) 0 ) ( = ( + ( * Nl3arg51 lam24n3 ) ( - ( - RFN1_arg5 ) ) ) 0 ) ( = ( - ( + 0 ( * RFN1_arg3 1 ) ) ) 0 ) ( = ( - ( + 0 ( * RFN1_arg4 1 ) ) ) 0 ) ( = ( - ( + 0 ( * RFN1_arg5 1 ) ) ) 0 ) ( = ( * 1 lam24n0 ) 0 ) ) ) ) ) ( or ( and ( >= lam10n0 0 ) ( >= lam10n1 0 ) ( >= lam10n2 0 ) ( >= lam10n3 0 ) ( >= lam10n5 0 ) ( > ( + ( * 1 lam10n0 ) ( * 1 lam10n1 ) ( * 1 lam10n2 ) ( * Nl3CT1 lam10n5 ) ( - 1 ) ) 0 ) ( = ( + ( * 1 lam10n4 ) ( * Nl3arg11 lam10n5 ) ) 0 ) ( = ( + ( * ( - 1 ) lam10n0 ) ( * ( - 1 ) lam10n3 ) ( * Nl3arg21 lam10n5 ) ) 0 ) ( = ( * Nl3arg31 lam10n5 ) 0 ) ( = ( * Nl3arg41 lam10n5 ) 0 ) ( = ( * Nl3arg51 lam10n5 ) 0 ) ( = ( * ( - 1 ) lam10n1 ) 0 ) ( = ( + ( * 1 lam10n0 ) ( * 1 lam10n1 ) ( * ( - 1 ) lam10n2 ) ) 0 ) ) ( and ( >= lam14n0 0 ) ( >= lam14n1 0 ) ( >= lam14n3 0 ) ( > ( + ( * 1 lam14n0 ) ( * Nl3CT1 lam14n3 ) ( - 1 ) ) 0 ) ( = ( + ( * 1 lam14n2 ) ( * Nl3arg11 lam14n3 ) ) 0 ) ( = ( + ( * ( - 1 ) lam14n0 ) ( * ( - 1 ) lam14n1 ) ( * Nl3arg21 lam14n3 ) ) 0 ) ( = ( * Nl3arg31 lam14n3 ) 0 ) ( = ( * Nl3arg41 lam14n3 ) 0 ) ( = ( * Nl3arg51 lam14n3 ) 0 ) ( = ( * 1 lam14n0 ) 0 ) ) ( and ( >= lam18n0 0 ) ( >= lam18n1 0 ) ( >= lam18n2 0 ) ( >= lam18n3 0 ) ( >= lam18n4 0 ) ( >= lam18n6 0 ) ( > ( + ( * 1 lam18n0 ) ( * 1 lam18n1 ) ( * 1 lam18n2 ) ( * 1 lam18n3 ) ( * ( - 1 ) lam18n5 ) ( * Nl3CT1 lam18n6 ) ( - 1 ) ) 0 ) ( = ( + ( * 1 lam18n5 ) ( * Nl3arg11 lam18n6 ) ) 0 ) ( = ( + ( * ( - 1 ) lam18n0 ) ( * ( - 1 ) lam18n4 ) ( * Nl3arg21 lam18n6 ) ) 0 ) ( = ( * Nl3arg31 lam18n6 ) 0 ) ( = ( * Nl3arg41 lam18n6 ) 0 ) ( = ( * Nl3arg51 lam18n6 ) 0 ) ( = ( + ( * 1 lam18n0 ) ( * 1 lam18n1 ) ( * 1 lam18n2 ) ( * ( - 1 ) lam18n3 ) ) 0 ) ( = ( * ( - 1 ) lam18n1 ) 0 ) ( = ( * ( - 1 ) lam18n2 ) 0 ) ) ( and ( >= lam22n0 0 ) ( >= lam22n1 0 ) ( >= lam22n3 0 ) ( > ( + ( * 1 lam22n0 ) ( * ( - 1 ) lam22n2 ) ( * Nl3CT1 lam22n3 ) ( - 1 ) ) 0 ) ( = ( + ( * 1 lam22n2 ) ( * Nl3arg11 lam22n3 ) ) 0 ) ( = ( + ( * ( - 1 ) lam22n0 ) ( * ( - 1 ) lam22n1 ) ( * Nl3arg21 lam22n3 ) ) 0 ) ( = ( * Nl3arg31 lam22n3 ) 0 ) ( = ( * Nl3arg41 lam22n3 ) 0 ) ( = ( * Nl3arg51 lam22n3 ) 0 ) ( = ( * 1 lam22n0 ) 0 ) ) ) ))
(check-sat)
(exit)
